\ Model Capital Budgeting Problem with Multi-Stage Investments and Resource Constraints
\ LP format - for model browsing. Use MPS format to capture full model detail.
Maximize
  43.6957489987 x[0,0] + 43.6957489987 x[0,1] + 43.6957489987 x[0,2]
   + 98.42516134669999 x[1,0] + 98.42516134669999 x[1,1]
   + 98.42516134669999 x[1,2] + 11.6530138245 x[2,0] + 11.6530138245 x[2,1]
   + 11.6530138245 x[2,2] + 89.9605228178 x[3,0] + 89.9605228178 x[3,1]
   + 89.9605228178 x[3,2] + 19.0888695728 x[4,0] + 19.0888695728 x[4,1]
   + 19.0888695728 x[4,2]
Subject To
 budget_0: 4.534214718 x[0,0] + 43.662145794 x[1,0] + 52.0400428218 x[2,0]
   + 80.670435883 x[3,0] + 68.71702897679999 x[4,0] <= 94.0322857277
 budget_1: 4.534214718 x[0,1] + 43.662145794 x[1,1] + 52.0400428218 x[2,1]
   + 80.670435883 x[3,1] + 68.71702897679999 x[4,1] <= 73.7300655797
 budget_2: 4.534214718 x[0,2] + 43.662145794 x[1,2] + 52.0400428218 x[2,2]
   + 80.670435883 x[3,2] + 68.71702897679999 x[4,2] <= 19.7838093973
 resource_0_0: 43.1866102225 x[0,0] + 92.08500853619999 x[1,0]
   + 66.3724088789 x[2,0] + 90.0146788262 x[3,0] + 66.7226011202 x[4,0]
   <= 69.751120578
 resource_0_1: 94.89256114849999 x[0,0] + 62.3532254536 x[1,0]
   + 12.5500690349 x[2,0] + 50.7615381531 x[3,0] + 32.6856721953 x[4,0]
   <= 55.4858065189
 resource_1_0: 43.1866102225 x[0,1] + 92.08500853619999 x[1,1]
   + 66.3724088789 x[2,1] + 90.0146788262 x[3,1] + 66.7226011202 x[4,1]
   <= 19.2648252897
 resource_1_1: 94.89256114849999 x[0,1] + 62.3532254536 x[1,1]
   + 12.5500690349 x[2,1] + 50.7615381531 x[3,1] + 32.6856721953 x[4,1]
   <= 66.5264504779
 resource_2_0: 43.1866102225 x[0,2] + 92.08500853619999 x[1,2]
   + 66.3724088789 x[2,2] + 90.0146788262 x[3,2] + 66.7226011202 x[4,2]
   <= 37.9766131845
 resource_2_1: 94.89256114849999 x[0,2] + 62.3532254536 x[1,2]
   + 12.5500690349 x[2,2] + 50.7615381531 x[3,2] + 32.6856721953 x[4,2]
   <= 74.83864255989999
 dependency_0_1_0: - x[0,0] + x[1,0] <= 0
 dependency_0_1_1: - x[0,1] + x[1,1] <= 0
 dependency_0_1_2: - x[0,2] + x[1,2] <= 0
 dependency_0_2_0: - x[0,0] + x[2,0] <= 0
 dependency_0_2_1: - x[0,1] + x[2,1] <= 0
 dependency_0_2_2: - x[0,2] + x[2,2] <= 0
 dependency_0_4_0: - x[0,0] + x[4,0] <= 0
 dependency_0_4_1: - x[0,1] + x[4,1] <= 0
 dependency_0_4_2: - x[0,2] + x[4,2] <= 0
 dependency_1_0_0: x[0,0] - x[1,0] <= 0
 dependency_1_0_1: x[0,1] - x[1,1] <= 0
 dependency_1_0_2: x[0,2] - x[1,2] <= 0
 dependency_1_2_0: - x[1,0] + x[2,0] <= 0
 dependency_1_2_1: - x[1,1] + x[2,1] <= 0
 dependency_1_2_2: - x[1,2] + x[2,2] <= 0
 dependency_1_3_0: - x[1,0] + x[3,0] <= 0
 dependency_1_3_1: - x[1,1] + x[3,1] <= 0
 dependency_1_3_2: - x[1,2] + x[3,2] <= 0
 dependency_1_4_0: - x[1,0] + x[4,0] <= 0
 dependency_1_4_1: - x[1,1] + x[4,1] <= 0
 dependency_1_4_2: - x[1,2] + x[4,2] <= 0
 dependency_2_0_0: x[0,0] - x[2,0] <= 0
 dependency_2_0_1: x[0,1] - x[2,1] <= 0
 dependency_2_0_2: x[0,2] - x[2,2] <= 0
 dependency_2_1_0: x[1,0] - x[2,0] <= 0
 dependency_2_1_1: x[1,1] - x[2,1] <= 0
 dependency_2_1_2: x[1,2] - x[2,2] <= 0
 dependency_2_3_0: - x[2,0] + x[3,0] <= 0
 dependency_2_3_1: - x[2,1] + x[3,1] <= 0
 dependency_2_3_2: - x[2,2] + x[3,2] <= 0
 dependency_3_1_0: x[1,0] - x[3,0] <= 0
 dependency_3_1_1: x[1,1] - x[3,1] <= 0
 dependency_3_1_2: x[1,2] - x[3,2] <= 0
 dependency_3_2_0: x[2,0] - x[3,0] <= 0
 dependency_3_2_1: x[2,1] - x[3,1] <= 0
 dependency_3_2_2: x[2,2] - x[3,2] <= 0
 dependency_4_0_0: x[0,0] - x[4,0] <= 0
 dependency_4_0_1: x[0,1] - x[4,1] <= 0
 dependency_4_0_2: x[0,2] - x[4,2] <= 0
Bounds
Binaries
 x[0,0] x[0,1] x[0,2] x[1,0] x[1,1] x[1,2] x[2,0] x[2,1] x[2,2] x[3,0]
 x[3,1] x[3,2] x[4,0] x[4,1] x[4,2]
End
